clingo version 5.8.0 (6d1efb6)
Reading from ES_hexagons.lp
Reading      : 0.821s
Preprocessing: 0.626s
Sat-Prepro   :Sat-Prepro   : S:        0/181160  Sat-Prepro   : S:     8192/181160  Sat-Prepro   : S:    16384/181160  Sat-Prepro   : S:    24576/181160  Sat-Prepro   : S:    32768/181160  Sat-Prepro   : S:    40960/181160  Sat-Prepro   : S:    49152/181160  Sat-Prepro   : S:    57344/181160  Sat-Prepro   : S:    65536/181160  Sat-Prepro   : S:    73728/181160  Sat-Prepro   : S:    81920/181160  Sat-Prepro   : S:    90112/181160  Sat-Prepro   : S:    98304/181160  Sat-Prepro   : S:   106496/181160  Sat-Prepro   : S:   114688/181160  Sat-Prepro   : S:   122880/181160  Sat-Prepro   : S:   131072/181160  Sat-Prepro   : S:   139264/181160  Sat-Prepro   : S:   147456/181160  Sat-Prepro   : S:   155648/181160  Sat-Prepro   : S:   163840/181160  Sat-Prepro   : S:   172032/181160  Sat-Prepro   : S:   180224/181160  Sat-Prepro   : B:        0/8202    Sat-Prepro   : B:     8192/262     Sat-Prepro   : E:        0/8202    Sat-Prepro   : E:     8192/10      Sat-Prepro   : B:        0/4319    Sat-Prepro   : 0.822s (ClRemoved: 49310 ClAdded: 21045 LitsStr: 0)
Solving...
------------------------------------------------------------------------------------------|
ID:T       Vars           Constraints         State            Limits            Time     |
       #free/#fixed   #problem/#learnt  #conflicts/ratio #conflict/#learnt                |
------------------------------------------------------------------------------------------|
 0:R|   5085/680    |  153401/0       |         0/0.000 |     100/40200     |      2.310s |
 0:R|   5085/680    |  153401/100     |       100/0.599 |     150/40200     |      2.390s |
 0:R|   5085/680    |  153401/247     |       250/0.613 |     225/40200     |      2.571s |
 0:R|   5085/680    |  153401/470     |       475/0.614 |     337/40200     |      2.836s |
 0:R|   5085/680    |  153401/804     |       812/0.628 |     506/40200     |      3.229s |
 0:R|   5085/680    |  153401/1307    |      1318/0.653 |     759/40200     |      3.760s |
 0:R|   5085/680    |  153401/2061    |      2078/0.664 |    1139/40200     |      4.444s |
 0:R|   5085/680    |  153401/3188    |      3218/0.666 |    1708/40200     |      5.796s |
 0:R|   5085/680    |  153401/4884    |      4927/0.669 |    2562/40200     |      7.446s |
 0:R|   5085/680    |  153401/7425    |      7489/0.679 |    3844/40200     |      9.710s |
 0:R|   5085/680    |  153401/11256   |     11333/0.700 |    5766/40200     |     13.447s |
 0:R|   5085/680    |  153401/16999   |     17100/0.722 |    8649/40200     |     18.797s |
 0:R|   5085/680    |  153401/25617   |     25750/0.733 |   12974/40200     |     29.439s |
 0:R|   5085/680    |  153401/38558   |     38725/0.740 |   19461/44220     |     43.720s |
 0:D|   4530/680    |  153401/11056   |     44402/0.745 |   13784/44220     |     50.064s |
 0:R|   5085/680    |  153401/24815   |     58187/0.756 |   29192/48642     |     64.803s |
 0:D|   4281/680    |  153401/12162   |     82070/0.760 |    5309/48642     |     94.917s |
 0:R|   5085/680    |  153401/17464   |     87379/0.761 |   43789/53506     |    100.161s |
 0:D|   3691/680    |  153401/13377   |    123456/0.770 |    7712/53506     |    143.066s |
 0:R|   5085/680    |  153401/21084   |    131171/0.773 |   65684/58856     |    150.525s |
------------------------------------------------------------------------------------------|
ID:T       Vars           Constraints         State            Limits            Time     |
       #free/#fixed   #problem/#learnt  #conflicts/ratio #conflict/#learnt                |
------------------------------------------------------------------------------------------|
 0:D|   3883/680    |  153401/14715   |    169004/0.777 |   27851/58856     |    196.489s |
 0:R|   5085/680    |  153401/42537   |    196856/0.778 |   98526/64742     |    230.316s |
 0:D|   4626/680    |  153401/16186   |    219087/0.777 |   76295/64742     |    253.795s |
 0:D|   3852/680    |  153401/16186   |    267678/0.780 |   27704/64742     |    307.750s |
 0:R|   5085/680    |  153401/43862   |    295382/0.781 |  147789/71216     |    338.358s |
 0:D|   4445/680    |  153401/17805   |    322761/0.782 |  120410/71216     |    379.826s |
 0:D|   4741/680    |  153401/17805   |    376211/0.784 |   66960/71216     |    455.174s |
 0:D|   3751/680    |  153401/17805   |    429659/0.785 |   13512/71216     |    526.192s |
 0:R|   5085/680    |  153401/31312   |    443171/0.786 |  221683/78338     |    540.737s |
 0:D|   4534/680    |  153401/19585   |    490254/0.784 |  174600/78338     |    596.709s |
 0:D|   4423/680    |  153401/19586   |    549045/0.784 |  115809/78338     |    677.809s |
 0:D|   4785/680    |  153401/19585   |    607835/0.784 |   57019/78338     |    757.720s |
 0:R|   5085/680    |  153401/76583   |    664854/0.785 |  332525/86172     |    834.491s |
 0:D|   4491/680    |  153401/21544   |    674453/0.785 |  322926/86172     |    851.341s |
 0:D|   4184/680    |  153401/21544   |    739128/0.787 |  258251/86172     |    943.845s |
 0:D|   4161/680    |  153401/21544   |    803784/0.789 |  193595/86172     |   1032.046s |
 0:D|   4181/680    |  153401/21544   |    868442/0.790 |  128937/86172     |   1121.874s |
 0:D|   2737/680    |  153401/21544   |    933109/0.791 |   64270/86172     |   1220.234s |
 0:R|   5085/680    |  153401/85789   |    997379/0.793 |  498788/94789     |   1312.515s |
 0:D|   4777/680    |  153401/23698   |   1006386/0.792 |  489781/94789     |   1324.676s |
------------------------------------------------------------------------------------------|
ID:T       Vars           Constraints         State            Limits            Time     |
       #free/#fixed   #problem/#learnt  #conflicts/ratio #conflict/#learnt                |
------------------------------------------------------------------------------------------|
 0:D|   4711/680    |  153401/23698   |   1077520/0.792 |  418647/94789     |   1422.901s |
 0:D|   4705/680    |  153401/23698   |   1148646/0.793 |  347521/94789     |   1524.769s |
 0:D|   4327/680    |  153401/23698   |   1219770/0.793 |  276397/94789     |   1629.024s |
 0:D|   4096/680    |  153401/23698   |   1290885/0.794 |  205282/94789     |   1738.574s |
 0:D|   3553/680    |  153401/23698   |   1362008/0.794 |  134159/94789     |   1849.994s |
 0:D|   4463/680    |  153401/23698   |   1433131/0.794 |   63036/94789     |   1947.757s |
 0:R|   5085/680    |  153401/86711   |   1496168/0.794 |  748182/104268    |   2040.030s |
 0:D|   4440/680    |  153401/26068   |   1513738/0.794 |  730612/104268    |   2070.268s |
 0:D|   4253/680    |  153401/26068   |   1591974/0.795 |  652376/104268    |   2183.434s |
 0:D|   3854/680    |  153401/26068   |   1670193/0.796 |  574157/104268    |   2304.523s |
 0:D|   4345/680    |  153401/26068   |   1748421/0.796 |  495929/104268    |   2419.855s |
 0:D|   4522/680    |  153401/26068   |   1826651/0.797 |  417699/104268    |   2533.614s |
 0:D|   4475/680    |  153401/26069   |   1904881/0.797 |  339469/104268    |   2655.016s |
 0:D|   3922/680    |  153401/26068   |   1983098/0.797 |  261252/104268    |   2760.852s |
 0:D|   4539/680    |  153401/26068   |   2061319/0.798 |  183031/104268    |   2862.677s |
 0:D|   4306/680    |  153401/26068   |   2139533/0.798 |  104817/104268    |   2984.144s |
 0:D|   4071/680    |  153401/26068   |   2217749/0.798 |   26601/104268    |   3113.332s |
 0:R|   5085/680    |  153401/52661   |   2244351/0.798 | 1122274/114695    |   3148.316s |
 0:D|   4158/680    |  153401/28674   |   2306409/0.798 | 1060216/114695    |   3247.005s |
 0:D|   4166/680    |  153401/28674   |   2392457/0.797 |  974168/114695    |   3390.755s |
------------------------------------------------------------------------------------------|
ID:T       Vars           Constraints         State            Limits            Time     |
       #free/#fixed   #problem/#learnt  #conflicts/ratio #conflict/#learnt                |
------------------------------------------------------------------------------------------|
 0:D|   4076/680    |  153401/28674   |   2478513/0.798 |  888112/114695    |   3535.409s |
 0:D|   4089/680    |  153401/28675   |   2564556/0.798 |  802069/114695    |   3676.346s |
 0:D|   4678/680    |  153401/28675   |   2650596/0.799 |  716029/114695    |   3808.788s |
 0:D|   3995/680    |  153401/28674   |   2736644/0.799 |  629981/114695    |   3945.396s |
 0:D|   3668/680    |  153401/28674   |   2822685/0.799 |  543940/114695    |   4096.974s |
 0:D|   4308/680    |  153401/28674   |   2908736/0.800 |  457889/114695    |   4243.453s |
 0:D|   4625/680    |  153401/28675   |   2994774/0.800 |  371851/114695    |   4374.852s |
 0:D|   4026/682    |  152370/28674   |   3122687/0.800 |  243938/114695    |   4589.451s |
 0:D|   3935/682    |  152370/28675   |   3208740/0.800 |  157885/114695    |   4738.337s |
 0:D|   2990/682    |  152370/28674   |   3294782/0.800 |   71843/114695    |   4884.454s |
 0:R|   5083/682    |  152370/100493  |   3366625/0.800 | 1683411/126164    |   4998.481s |
 0:D|   3871/682    |  152370/31542   |   3392310/0.800 | 1657726/126164    |   5054.252s |
 0:D|   4111/682    |  152370/31542   |   3486981/0.800 | 1563055/126164    |   5223.821s |
 0:D|   3789/684    |  151750/31542   |   3626623/0.800 | 1423413/126164    |   5472.000s |
 0:D|   4620/684    |  151750/31542   |   3721279/0.800 | 1328757/126164    |   5637.861s |
 0:D|   4463/684    |  151750/31542   |   3815940/0.800 | 1234096/126164    |   5802.042s |
 0:E|   4873/892    |  133620/44501   |   3945990/0.800 | 1234096/126164    |   6002.550s |
------------------------------------------------------------------------------------------|
UNSATISFIABLE

Models       : 0
Calls        : 1
Time         : 6002.550s (Solving: 6000.24s 1st Model: 0.00s Unsat: 6000.24s)
CPU Time     : 4137.439s

Choices      : 4929877 
Conflicts    : 3945990  (Analyzed: 3945989)
Restarts     : 24       (Average: 164416.21 Last: 579364 Blocked: 0)
Problems     : 1        (Average Length: 0.00 Splits: 0)
Lemmas       : 3945989  (Deleted: 3695728)
  Binary     : 41       (Ratio:   0.00%)
  Ternary    : 1937     (Ratio:   0.05%)
  Conflict   : 3945989  (Average Length:   48.8 Ratio: 100.00%) 
  Loop       : 0        (Average Length:    0.0 Ratio:   0.00%) 
  Other      : 0        (Average Length:    0.0 Ratio:   0.00%) 
Backjumps    : 3945989  (Average:  1.25 Max:  20 Sum: 4929525)
  Executed   : 3945989  (Average:  1.25 Max:  20 Sum: 4929525 Ratio: 100.00%)
  Bounded    : 0        (Average:  0.00 Max:   0 Sum:      0 Ratio:   0.00%)

Rules        : 227471  
  Choice     : 680     
Atoms        : 10135   
Bodies       : 225213  
  Count      : 1110    
Equivalences : 8650     (Atom=Atom: 1395 Body=Body: 276 Other: 6979)
Tight        : Yes
Variables    : 13282    (Eliminated: 7517 Frozen: 4400)
Constraints  : 153401   (Binary:   0.7% Ternary:  19.1% Other:  80.1%)

